32,42
51,61
69,79
97,107
19,29
90,100
42,52
80,90
59,69
32,42
48,58
30,40
24,34
52,62
55,65
27,37
26,36
59,69
77,87
66,76
53,63
55,65
95,105
88,98
78,88
90,100
92,102
31,41
17,27
78,88
23,33
19,29
76,86
59,69
66,76
97,107
44,54
21,31
39,49
24,34
12,22
37,47
79,89
74,84
94,104
50,60
28,38
23,33
71,81
50,60

125
132
118
159
143
135
121
110
152
